========================================================== 
File name: C:\DEGR\assets\definitions\MSRCPSP_Gen\200_5_64_10_C.def
Creation date: Wed May 03 10:46:50 CEST 2023
Website: http://imopse.ii.pwr.edu.pl/ 
Reference: 
Myszkowski P. B., Skowronski M. E., Olech L., Oslizlo K., 
Hybrid Ant Colony Optimization in solving Multi-Skill Resource-Constrained Project Scheduling Problem, 
Soft Computing, DOI: DOI 10.1007/s00500-014-1455-x 
========================================================== 
General characteristics: 
Tasks: 200
Resources: 5
Precedence relations: 63
Number of skill types: 9
========================================================== 
ResourceID 	 Salary 	 Skills 
1	 	 	90.3	 	 Q3: 3 	  Q5: 0 	 
2	 	 	56.0	 	 Q2: 1 	  Q1: 1 	  Q4: 3 	  Q8: 3 	  Q5: 3 	 
3	 	 	54.7	 	 Q6: 2 	  Q2: 0 	 
4	 	 	72.6	 	 Q7: 3 	  Q6: 0 	  Q9: 3 	 
5	 	 	84.5	 	 Q9: 3 	  Q4: 2 	  Q7: 2 	  Q6: 2 	  Q3: 0 	  Q5: 0 	  Q8: 3 	 
========================================================== 
TaskID 	 Duration 	 Skill 	 Predecessor IDs 
1	36	Q3:	0
2	10	Q7:	2
3	33	Q2:	0
4	39	Q1:	1
5	37	Q2:	1
6	34	Q3:	3
7	28	Q6:	2
8	25	Q2:	0
9	20	Q2:	0
10	32	Q6:	0
11	40	Q3:	3
12	32	Q4:	3
13	36	Q4:	2
14	37	Q8:	3
15	11	Q6:	0
16	36	Q6:	0
17	24	Q8:	3
18	34	Q1:	1
19	37	Q5:	3
20	19	Q1:	1
21	33	Q4:	3
22	12	Q7:	2
23	11	Q4:	3
24	14	Q4:	2
25	16	Q2:	0
26	14	Q5:	0
27	20	Q7:	3
28	28	Q9:	3
29	36	Q7:	3
30	20	Q8:	3
31	27	Q2:	1
32	34	Q6:	2
33	12	Q2:	0
34	10	Q8:	3
35	16	Q2:	0	30
36	34	Q1:	1
37	32	Q6:	2
38	38	Q6:	2
39	28	Q4:	3
40	9	Q9:	3
41	14	Q4:	2
42	26	Q6:	0
43	12	Q1:	1	4
44	38	Q6:	2
45	39	Q9:	3
46	12	Q4:	3	5
47	25	Q6:	0
48	34	Q4:	3
49	34	Q3:	3
50	34	Q6:	2
51	17	Q4:	3
52	38	Q2:	0
53	15	Q2:	0
54	21	Q5:	3
55	32	Q5:	3
56	11	Q1:	1
57	18	Q5:	0
58	14	Q8:	3
59	35	Q5:	3
60	11	Q6:	0
61	10	Q2:	0	60
62	36	Q3:	3	19
63	12	Q3:	3
64	11	Q5:	3
65	20	Q8:	3
66	34	Q3:	3
67	40	Q7:	3	37
68	23	Q2:	0	40
69	40	Q4:	2
70	28	Q3:	0
71	40	Q9:	3
72	33	Q9:	3
73	40	Q6:	0	63
74	12	Q4:	2
75	15	Q3:	3
76	25	Q3:	0
77	17	Q6:	2
78	13	Q2:	0
79	12	Q2:	1
80	30	Q7:	3
81	36	Q2:	1	4
82	27	Q4:	2
83	27	Q4:	2	77
84	21	Q2:	0
85	35	Q3:	3
86	36	Q6:	0
87	40	Q1:	1
88	30	Q6:	0
89	21	Q3:	3	48
90	31	Q6:	2
91	9	Q5:	0	49
92	18	Q2:	0
93	25	Q4:	3
94	17	Q7:	3	84	3
95	32	Q8:	3
96	40	Q3:	0
97	25	Q8:	3
98	24	Q6:	2	56
99	19	Q5:	0	54
100	36	Q1:	1
101	32	Q8:	3
102	39	Q5:	0
103	14	Q2:	0
104	11	Q6:	2
105	20	Q7:	3
106	28	Q6:	0
107	19	Q5:	3
108	31	Q8:	3	105
109	12	Q5:	3
110	21	Q5:	3
111	31	Q7:	3
112	13	Q8:	3
113	9	Q2:	0	87
114	9	Q8:	3
115	19	Q2:	1
116	25	Q5:	3
117	40	Q1:	1	85
118	12	Q7:	3	32
119	29	Q5:	0
120	38	Q3:	0
121	19	Q3:	0
122	30	Q3:	3	105
123	12	Q1:	1	33
124	39	Q7:	2
125	23	Q8:	3
126	34	Q9:	3	102
127	18	Q5:	0
128	19	Q7:	3
129	16	Q9:	3
130	39	Q7:	2
131	25	Q2:	1	62
132	8	Q6:	0	7
133	40	Q2:	1
134	16	Q5:	3
135	33	Q2:	1	54
136	22	Q7:	3	34
137	17	Q7:	2	111
138	26	Q7:	3
139	40	Q3:	0
140	31	Q5:	0
141	25	Q5:	0
142	22	Q9:	3	21
143	33	Q8:	3
144	40	Q6:	2
145	40	Q9:	3
146	34	Q3:	3
147	20	Q9:	3
148	38	Q9:	3
149	26	Q9:	3	41
150	36	Q7:	2
151	38	Q2:	0
152	25	Q7:	3
153	32	Q3:	0	96
154	27	Q3:	0	45
155	25	Q6:	2
156	32	Q3:	0
157	22	Q2:	0
158	25	Q9:	3	63	52
159	32	Q5:	0	8	59	84
160	33	Q3:	3	128
161	30	Q4:	2	35
162	11	Q9:	3
163	11	Q5:	3	72	107
164	33	Q6:	0
165	23	Q6:	2	34
166	12	Q4:	3
167	33	Q4:	2	95
168	28	Q6:	2	99	98
169	17	Q5:	0
170	34	Q1:	1
171	19	Q8:	3	26
172	26	Q7:	2
173	37	Q7:	3	139
174	22	Q6:	2
175	39	Q3:	3
176	28	Q4:	3	50
177	29	Q7:	2
178	35	Q4:	3	169	17	132
179	21	Q2:	1
180	17	Q7:	2
181	10	Q1:	1	162
182	25	Q6:	2
183	38	Q2:	1
184	20	Q6:	0
185	20	Q8:	3	175
186	17	Q9:	3
187	11	Q8:	3
188	12	Q1:	1
189	34	Q1:	1	180
190	35	Q4:	2
191	40	Q3:	0	182
192	19	Q5:	3
193	24	Q3:	3	23
194	12	Q3:	3	131
195	30	Q2:	0	122
196	40	Q8:	3	73
197	10	Q7:	3	164	130
198	10	Q7:	3
199	9	Q8:	3	102
200	28	Q5:	0	39
========================================================== 